n_trains = 20;
n_tracks = 4;
tracks = [{1,2,3,4,5}, {6,7,8,9,10}, {11,12,13,14,15}, {16,17,18,19,20}];
arrival_order = [5,4,3,2,1,10,9,8,7,6,15,14,13,12,11,20,19,18,17,16];
departure_order = [1,2,3,4,5,6,7,8,9,10,11,12,13,14,15,16,17,18,19,20];
